\ENCODING=ISO-8859-1
\Problem name: IloCplex

Minimize
 obj1: 10 tp(0) + 10 tm(0) + 10 tp(1) + 10 tm(1) + 10 tp(2) + 10 tm(2)
       + 10 tp(3) + 10 tm(3) + 10 tp(4) + 10 tm(4) + 10 tp(5) + 10 tm(5)
       + 10 tp(6) + 10 tm(6) + 10 tp(7) + 10 tm(7) + 10 tp(8) + 10 tm(8)
       + 10 tp(9) + 10 tm(9) + 10 tp(10) + 10 tm(10) + 10 tp(11) + 10 tm(11)
       + 10 tp(12) + 10 tm(12) + 10 tp(13) + 10 tm(13) + 10 tp(14) + 10 tm(14)
       + 10 tp(15) + 10 tm(15) + 10 tp(16) + 10 tm(16) + 10 tp(17) + 10 tm(17)
       + 10 tp(18) + 10 tm(18) + 10 tp(19) + 10 tm(19) + 10 tp(20) + 10 tm(20)
       + 10 tp(21) + 10 tm(21) + 10 tp(22) + 10 tm(22) + 10 tp(23) + 10 tm(23)
       + 10 tp(24) + 10 tm(24) + 10 tp(25) + 10 tm(25) + 10 tp(26) + 10 tm(26)
       + 10 tp(27) + 10 tm(27) + 10 tp(28) + 10 tm(28) + 10 tp(29) + 10 tm(29)
       + 10 tp(30) + 10 tm(30) + 10 tp(31) + 10 tm(31) + 10 tp(32) + 10 tm(32)
       + 10 tp(33) + 10 tm(33) + 10 tp(34) + 10 tm(34) + 10 tp(35) + 10 tm(35)
       + 10 tp(36) + 10 tm(36) + 10 tp(37) + 10 tm(37) + 10 tp(38) + 10 tm(38)
       + 10 tp(39) + 10 tm(39) + 10 tp(40) + 10 tm(40) + 10 tp(41) + 10 tm(41)
       + 10 tp(42) + 10 tm(42) + 10 tp(43) + 10 tm(43) + 10 tp(44) + 10 tm(44)
       + 10 tp(45) + 10 tm(45) + 10 tp(46) + 10 tm(46) + 10 tp(47) + 10 tm(47)
       + 10 tp(48) + 10 tm(48) + 10 tp(49) + 10 tm(49) + [ w(8) ^2 + w(7) ^2
       + w(6) ^2 + w(5) ^2 + w(4) ^2 + w(3) ^2 + w(2) ^2 + w(1) ^2 + w(0) ^2
       ] / 2
Subject To
 c1:   - 1.52040197 w(8) - 1.57311958 w(7) + 1.13925096 w(6) - 0.23465647 w(5)
       + 0.34370808 w(4) + 1.44825167 w(3) - 1.70525563 w(2) - 0.36767065 w(1)
       + 0.89106574 w(0) + z - pp(0) <= 0.8412824
 c2:   1.52040197 w(8) + 1.57311958 w(7) - 1.13925096 w(6) + 0.23465647 w(5)
       - 0.34370808 w(4) - 1.44825167 w(3) + 1.70525563 w(2) + 0.36767065 w(1)
       - 0.89106574 w(0) - z - pm(0) <= -0.4412824
 c3:   tp(0) - pp(0) <= 0
 c4:   tp(0) - 143 s(0) <= 0
 c5:   tp(0) - pp(0) - 143 s(0) >= -143
 c6:   tm(0) - pm(0) <= 0
 c7:   tm(0) - 159 s(0) <= 0
 c8:   tm(0) - pm(0) - 159 s(0) >= -159
 c9:   0.9755976 w(8) - 1.32587665 w(7) - 0.26278713 w(6) - 0.21584998 w(5)
       - 0.06159402 w(4) + 0.89973113 w(3) + 2.12685895 w(2) - 0.17580615 w(1)
       + 0.95453676 w(0) + z - pp(1) <= 3.71556913
 c10:  - 0.9755976 w(8) + 1.32587665 w(7) + 0.26278713 w(6) + 0.21584998 w(5)
       + 0.06159402 w(4) - 0.89973113 w(3) - 2.12685895 w(2) + 0.17580615 w(1)
       - 0.95453676 w(0) - z - pm(1) <= -3.31556913
 c11:  tp(1) - pp(1) <= 0
 c12:  tp(1) - 143 s(1) <= 0
 c13:  tp(1) - pp(1) - 143 s(1) >= -143
 c14:  tm(1) - pm(1) <= 0
 c15:  tm(1) - 159 s(1) <= 0
 c16:  tm(1) - pm(1) - 159 s(1) >= -159
 c17:  0.44845826 w(8) - 0.66827597 w(7) - 0.45763908 w(6) + 0.72798906 w(5)
       + 0.85599282 w(4) - 1.37901015 w(3) + 0.50283665 w(2) - 0.04059471 w(1)
       - 0.09886555 w(0) + z - pp(2) <= -0.79301335
 c18:  - 0.44845826 w(8) + 0.66827597 w(7) + 0.45763908 w(6) - 0.72798906 w(5)
       - 0.85599282 w(4) + 1.37901015 w(3) - 0.50283665 w(2) + 0.04059471 w(1)
       + 0.09886555 w(0) - z - pm(2) <= 1.19301335
 c19:  tp(2) - pp(2) <= 0
 c20:  tp(2) - 143 s(2) <= 0
 c21:  tp(2) - pp(2) - 143 s(2) >= -143
 c22:  tm(2) - pm(2) <= 0
 c23:  tm(2) - 159 s(2) <= 0
 c24:  tm(2) - pm(2) - 159 s(2) >= -159
 c25:  0.21922894 w(8) - 1.61509822 w(7) - 0.98433499 w(6) + 0.27479167 w(5)
       - 12.48252099 w(4) + 10.11841444 w(3) - 10.72629785 w(2)
       + 9.73931251 w(1) + 12.15888575 w(0) + z - pp(3) <= -6.68292658
 c26:  - 0.21922894 w(8) + 1.61509822 w(7) + 0.98433499 w(6) - 0.27479167 w(5)
       + 12.48252099 w(4) - 10.11841444 w(3) + 10.72629785 w(2)
       - 9.73931251 w(1) - 12.15888575 w(0) - z - pm(3) <= 7.08292658
 c27:  tp(3) - pp(3) <= 0
 c28:  tp(3) - 143 s(3) <= 0
 c29:  tp(3) - pp(3) - 143 s(3) >= -143
 c30:  tm(3) - pm(3) <= 0
 c31:  tm(3) - 159 s(3) <= 0
 c32:  tm(3) - pm(3) - 159 s(3) >= -159
 c33:  - 0.99091256 w(8) - 0.74601893 w(7) - 1.21730551 w(6) - 0.58976877 w(5)
       + 0.2434118 w(4) - 0.50176611 w(3) + 0.41089869 w(2) - 0.70931694 w(1)
       + 1.32762674 w(0) + z - pp(4) <= 0.38806529
 c34:  0.99091256 w(8) + 0.74601893 w(7) + 1.21730551 w(6) + 0.58976877 w(5)
       - 0.2434118 w(4) + 0.50176611 w(3) - 0.41089869 w(2) + 0.70931694 w(1)
       - 1.32762674 w(0) - z - pm(4) <= 0.01193471
 c35:  tp(4) - pp(4) <= 0
 c36:  tp(4) - 143 s(4) <= 0
 c37:  tp(4) - pp(4) - 143 s(4) >= -143
 c38:  tm(4) - pm(4) <= 0
 c39:  tm(4) - 159 s(4) <= 0
 c40:  tm(4) - pm(4) - 159 s(4) >= -159
 c41:  - 0.50770053 w(8) + 0.66068369 w(7) + 0.74403118 w(6) - 0.59972855 w(5)
       + 11.39048813 w(4) + 8.32607512 w(3) + 10.5299462 w(2) - 8.90526031 w(1)
       + 9.49158507 w(0) + z - pp(5) <= -10.68628715
 c42:  0.50770053 w(8) - 0.66068369 w(7) - 0.74403118 w(6) + 0.59972855 w(5)
       - 11.39048813 w(4) - 8.32607512 w(3) - 10.5299462 w(2) + 8.90526031 w(1)
       - 9.49158507 w(0) - z - pm(5) <= 11.08628715
 c43:  tp(5) - pp(5) <= 0
 c44:  tp(5) - 143 s(5) <= 0
 c45:  tp(5) - pp(5) - 143 s(5) >= -143
 c46:  tm(5) - pm(5) <= 0
 c47:  tm(5) - 159 s(5) <= 0
 c48:  tm(5) - pm(5) - 159 s(5) >= -159
 c49:  1.29849262 w(8) - 1.00248372 w(7) + 1.20856518 w(6) + 0.21917312 w(5)
       + 9.40621344 w(4) + 10.01578949 w(3) + 9.51179038 w(2)
       + 10.82414766 w(1) - 8.4556461 w(0) + z - pp(6) <= -8.66507814
 c50:  - 1.29849262 w(8) + 1.00248372 w(7) - 1.20856518 w(6) - 0.21917312 w(5)
       - 9.40621344 w(4) - 10.01578949 w(3) - 9.51179038 w(2)
       - 10.82414766 w(1) + 8.4556461 w(0) - z - pm(6) <= 9.06507814
 c51:  tp(6) - pp(6) <= 0
 c52:  tp(6) - 143 s(6) <= 0
 c53:  tp(6) - pp(6) - 143 s(6) >= -143
 c54:  tm(6) - pm(6) <= 0
 c55:  tm(6) - 159 s(6) <= 0
 c56:  tm(6) - pm(6) - 159 s(6) >= -159
 c57:  1.63157756 w(8) + 1.34008971 w(7) + 1.0960451 w(6) - 0.1970174 w(5)
       + 1.39384076 w(4) + 0.47306831 w(3) - 0.47491967 w(2) + 1.4408826 w(1)
       - 1.26796967 w(0) + z - pp(7) <= 2.29260431
 c58:  - 1.63157756 w(8) - 1.34008971 w(7) - 1.0960451 w(6) + 0.1970174 w(5)
       - 1.39384076 w(4) - 0.47306831 w(3) + 0.47491967 w(2) - 1.4408826 w(1)
       + 1.26796967 w(0) - z - pm(7) <= -1.89260431
 c59:  tp(7) - pp(7) <= 0
 c60:  tp(7) - 143 s(7) <= 0
 c61:  tp(7) - pp(7) - 143 s(7) >= -143
 c62:  tm(7) - pm(7) <= 0
 c63:  tm(7) - 159 s(7) <= 0
 c64:  tm(7) - pm(7) - 159 s(7) >= -159
 c65:  - 0.40992243 w(8) + 1.30925004 w(7) - 0.36985731 w(6) + 3.39451382 w(5)
       - 0.88384016 w(4) + 0.06417911 w(3) - 1.55169485 w(2) + 0.22805474 w(1)
       + 0.67263355 w(0) + z - pp(8) <= 1.94385073
 c66:  0.40992243 w(8) - 1.30925004 w(7) + 0.36985731 w(6) - 3.39451382 w(5)
       + 0.88384016 w(4) - 0.06417911 w(3) + 1.55169485 w(2) - 0.22805474 w(1)
       - 0.67263355 w(0) - z - pm(8) <= -1.54385073
 c67:  tp(8) - pp(8) <= 0
 c68:  tp(8) - 143 s(8) <= 0
 c69:  tp(8) - pp(8) - 143 s(8) >= -143
 c70:  tm(8) - pm(8) <= 0
 c71:  tm(8) - 159 s(8) <= 0
 c72:  tm(8) - pm(8) - 159 s(8) >= -159
 c73:  - 0.23186315 w(8) + 1.68013863 w(7) - 1.51833732 w(6) + 0.41001928 w(5)
       - 0.66218548 w(4) + 0.06427655 w(3) - 0.1469003 w(2) - 1.86259712 w(1)
       + 0.17894203 w(0) + z - pp(9) <= -0.28342349
 c74:  0.23186315 w(8) - 1.68013863 w(7) + 1.51833732 w(6) - 0.41001928 w(5)
       + 0.66218548 w(4) - 0.06427655 w(3) + 0.1469003 w(2) + 1.86259712 w(1)
       - 0.17894203 w(0) - z - pm(9) <= 0.68342349
 c75:  tp(9) - pp(9) <= 0
 c76:  tp(9) - 143 s(9) <= 0
 c77:  tp(9) - pp(9) - 143 s(9) >= -143
 c78:  tm(9) - pm(9) <= 0
 c79:  tm(9) - 159 s(9) <= 0
 c80:  tm(9) - pm(9) - 159 s(9) >= -159
 c81:  - 0.3189512 w(8) - 1.08907438 w(7) + 0.70222765 w(6) + 1.69028232 w(5)
       + 1.16465897 w(4) + 1.21456763 w(3) - 2.02941503 w(2) + 0.49941009 w(1)
       - 0.73900189 w(0) + z - pp(10) <= 2.40274363
 c82:  0.3189512 w(8) + 1.08907438 w(7) - 0.70222765 w(6) - 1.69028232 w(5)
       - 1.16465897 w(4) - 1.21456763 w(3) + 2.02941503 w(2) - 0.49941009 w(1)
       + 0.73900189 w(0) - z - pm(10) <= -2.00274363
 c83:  tp(10) - pp(10) <= 0
 c84:  tp(10) - 143 s(10) <= 0
 c85:  tp(10) - pp(10) - 143 s(10) >= -143
 c86:  tm(10) - pm(10) <= 0
 c87:  tm(10) - 159 s(10) <= 0
 c88:  tm(10) - pm(10) - 159 s(10) >= -159
 c89:  0.25997929 w(8) - 1.26554126 w(7) - 0.27697996 w(6) + 0.02253136 w(5)
       + 0.93499138 w(4) + 0.58335479 w(3) + 0.78434381 w(2) - 0.78181203 w(1)
       - 0.69847201 w(0) + z - pp(11) <= 1.83928938
 c90:  - 0.25997929 w(8) + 1.26554126 w(7) + 0.27697996 w(6) - 0.02253136 w(5)
       - 0.93499138 w(4) - 0.58335479 w(3) - 0.78434381 w(2) + 0.78181203 w(1)
       + 0.69847201 w(0) - z - pm(11) <= -1.43928938
 c91:  tp(11) - pp(11) <= 0
 c92:  tp(11) - 143 s(11) <= 0
 c93:  tp(11) - pp(11) - 143 s(11) >= -143
 c94:  tm(11) - pm(11) <= 0
 c95:  tm(11) - 159 s(11) <= 0
 c96:  tm(11) - pm(11) - 159 s(11) >= -159
 c97:  1.53530539 w(8) - 0.75466267 w(7) - 1.23833071 w(6) + 0.94291991 w(5)
       + 1.49204094 w(4) - 1.20028423 w(3) + 0.8585115 w(2) + 0.44793634 w(1)
       - 0.45589885 w(0) + z - pp(12) <= 1.98963992
 c98:  - 1.53530539 w(8) + 0.75466267 w(7) + 1.23833071 w(6) - 0.94291991 w(5)
       - 1.49204094 w(4) + 1.20028423 w(3) - 0.8585115 w(2) - 0.44793634 w(1)
       + 0.45589885 w(0) - z - pm(12) <= -1.58963992
 c99:  tp(12) - pp(12) <= 0
 c100: tp(12) - 143 s(12) <= 0
 c101: tp(12) - pp(12) - 143 s(12) >= -143
 c102: tm(12) - pm(12) <= 0
 c103: tm(12) - 159 s(12) <= 0
 c104: tm(12) - pm(12) - 159 s(12) >= -159
 c105: 0.49373699 w(8) + 0.72662351 w(7) + 1.81775128 w(6) - 0.81545917 w(5)
       - 1.80718077 w(4) - 0.3560836 w(3) + 0.10304199 w(2) - 0.48654372 w(1)
       + 1.58202038 w(0) + z - pp(13) <= -1.66774632
 c106: - 0.49373699 w(8) - 0.72662351 w(7) - 1.81775128 w(6) + 0.81545917 w(5)
       + 1.80718077 w(4) + 0.3560836 w(3) - 0.10304199 w(2) + 0.48654372 w(1)
       - 1.58202038 w(0) - z - pm(13) <= 2.06774632
 c107: tp(13) - pp(13) <= 0
 c108: tp(13) - 143 s(13) <= 0
 c109: tp(13) - pp(13) - 143 s(13) >= -143
 c110: tm(13) - pm(13) <= 0
 c111: tm(13) - 159 s(13) <= 0
 c112: tm(13) - pm(13) - 159 s(13) >= -159
 c113: - 0.11599583 w(8) - 0.49313078 w(7) - 2.02179332 w(6) - 0.5796547 w(5)
       - 0.77704895 w(4) + 1.75806186 w(3) - 0.34842242 w(2) + 0.21695922 w(1)
       - 0.14966216 w(0) + z - pp(14) <= 0.37591339
 c114: 0.11599583 w(8) + 0.49313078 w(7) + 2.02179332 w(6) + 0.5796547 w(5)
       + 0.77704895 w(4) - 1.75806186 w(3) + 0.34842242 w(2) - 0.21695922 w(1)
       + 0.14966216 w(0) - z - pm(14) <= 0.02408661
 c115: tp(14) - pp(14) <= 0
 c116: tp(14) - 143 s(14) <= 0
 c117: tp(14) - pp(14) - 143 s(14) >= -143
 c118: tm(14) - pm(14) <= 0
 c119: tm(14) - 159 s(14) <= 0
 c120: tm(14) - pm(14) - 159 s(14) >= -159
 c121: 0.59443475 w(8) - 0.67878571 w(7) - 0.54927274 w(6) - 0.84430862 w(5)
       - 0.19959708 w(4) + 1.29516938 w(3) + 1.33930905 w(2) + 0.92046969 w(1)
       - 0.25069797 w(0) + z - pp(15) <= 3.41586406
 c122: - 0.59443475 w(8) + 0.67878571 w(7) + 0.54927274 w(6) + 0.84430862 w(5)
       + 0.19959708 w(4) - 1.29516938 w(3) - 1.33930905 w(2) - 0.92046969 w(1)
       + 0.25069797 w(0) - z - pm(15) <= -3.01586406
 c123: tp(15) - pp(15) <= 0
 c124: tp(15) - 143 s(15) <= 0
 c125: tp(15) - pp(15) - 143 s(15) >= -143
 c126: tm(15) - pm(15) <= 0
 c127: tm(15) - 159 s(15) <= 0
 c128: tm(15) - pm(15) - 159 s(15) >= -159
 c129: 0.3724796 w(8) + 0.41868725 w(7) + 0.8139501 w(6) - 1.92392568 w(5)
       + 0.11736131 w(4) - 0.72824676 w(3) - 0.12011929 w(2) + 1.91133454 w(1)
       + 0.06940304 w(0) + z - pp(16) <= 0.52329982
 c130: - 0.3724796 w(8) - 0.41868725 w(7) - 0.8139501 w(6) + 1.92392568 w(5)
       - 0.11736131 w(4) + 0.72824676 w(3) + 0.12011929 w(2) - 1.91133454 w(1)
       - 0.06940304 w(0) - z - pm(16) <= -0.12329982
 c131: tp(16) - pp(16) <= 0
 c132: tp(16) - 143 s(16) <= 0
 c133: tp(16) - pp(16) - 143 s(16) >= -143
 c134: tm(16) - pm(16) <= 0
 c135: tm(16) - 159 s(16) <= 0
 c136: tm(16) - pm(16) - 159 s(16) >= -159
 c137: - 0.74016983 w(8) - 1.36294443 w(7) - 0.41968294 w(6) + 1.12550984 w(5)
       - 1.98780151 w(4) + 2.24433201 w(3) - 1.19365946 w(2) + 1.65758115 w(1)
       + 1.57067501 w(0) + z - pp(17) <= 3.26287902
 c138: 0.74016983 w(8) + 1.36294443 w(7) + 0.41968294 w(6) - 1.12550984 w(5)
       + 1.98780151 w(4) - 2.24433201 w(3) + 1.19365946 w(2) - 1.65758115 w(1)
       - 1.57067501 w(0) - z - pm(17) <= -2.86287902
 c139: tp(17) - pp(17) <= 0
 c140: tp(17) - 143 s(17) <= 0
 c141: tp(17) - pp(17) - 143 s(17) >= -143
 c142: tm(17) - pm(17) <= 0
 c143: tm(17) - 159 s(17) <= 0
 c144: tm(17) - pm(17) - 159 s(17) >= -159
 c145: 2.03007678 w(8) - 1.7850381 w(7) - 0.07379926 w(6) - 0.17241844 w(5)
       + 0.30698172 w(4) + 1.59838655 w(3) + 1.34968634 w(2) - 0.69434879 w(1)
       - 0.11727885 w(0) + z - pp(18) <= 2.04354255
 c146: - 2.03007678 w(8) + 1.7850381 w(7) + 0.07379926 w(6) + 0.17241844 w(5)
       - 0.30698172 w(4) - 1.59838655 w(3) - 1.34968634 w(2) + 0.69434879 w(1)
       + 0.11727885 w(0) - z - pm(18) <= -1.64354255
 c147: tp(18) - pp(18) <= 0
 c148: tp(18) - 143 s(18) <= 0
 c149: tp(18) - pp(18) - 143 s(18) >= -143
 c150: tm(18) - pm(18) <= 0
 c151: tm(18) - 159 s(18) <= 0
 c152: tm(18) - pm(18) - 159 s(18) >= -159
 c153: 1.20562036 w(8) + 0.03645537 w(7) - 0.15056991 w(6) - 0.65170507 w(5)
       + 0.16322159 w(4) - 2.05366133 w(3) - 1.31441531 w(2) - 0.07375169 w(1)
       - 2.015267 w(0) + z - pp(19) <= -5.0735174
 c154: - 1.20562036 w(8) - 0.03645537 w(7) + 0.15056991 w(6) + 0.65170507 w(5)
       - 0.16322159 w(4) + 2.05366133 w(3) + 1.31441531 w(2) + 0.07375169 w(1)
       + 2.015267 w(0) - z - pm(19) <= 5.4735174
 c155: tp(19) - pp(19) <= 0
 c156: tp(19) - 143 s(19) <= 0
 c157: tp(19) - pp(19) - 143 s(19) >= -143
 c158: tm(19) - pm(19) <= 0
 c159: tm(19) - 159 s(19) <= 0
 c160: tm(19) - pm(19) - 159 s(19) >= -159
 c161: 0.47779058 w(8) + 0.25923247 w(7) + 0.57020286 w(6) - 1.03837892 w(5)
       + 2.56210842 w(4) - 1.34976225 w(3) - 1.0220678 w(2) + 0.2722172 w(1)
       + 0.02587315 w(0) + z - pp(20) <= -0.06866821
 c162: - 0.47779058 w(8) - 0.25923247 w(7) - 0.57020286 w(6) + 1.03837892 w(5)
       - 2.56210842 w(4) + 1.34976225 w(3) + 1.0220678 w(2) - 0.2722172 w(1)
       - 0.02587315 w(0) - z - pm(20) <= 0.46866821
 c163: tp(20) - pp(20) <= 0
 c164: tp(20) - 143 s(20) <= 0
 c165: tp(20) - pp(20) - 143 s(20) >= -143
 c166: tm(20) - pm(20) <= 0
 c167: tm(20) - 159 s(20) <= 0
 c168: tm(20) - pm(20) - 159 s(20) >= -159
 c169: - 0.41968894 w(8) - 2.71007296 w(7) - 1.09119111 w(6) - 0.17910748 w(5)
       + 2.24082174 w(4) - 0.53900085 w(3) - 0.4295319 w(2) + 0.2570655 w(1)
       + 0.36995512 w(0) + z - pp(21) <= 2.48184921
 c170: 0.41968894 w(8) + 2.71007296 w(7) + 1.09119111 w(6) + 0.17910748 w(5)
       - 2.24082174 w(4) + 0.53900085 w(3) + 0.4295319 w(2) - 0.2570655 w(1)
       - 0.36995512 w(0) - z - pm(21) <= -2.08184921
 c171: tp(21) - pp(21) <= 0
 c172: tp(21) - 143 s(21) <= 0
 c173: tp(21) - pp(21) - 143 s(21) >= -143
 c174: tm(21) - pm(21) <= 0
 c175: tm(21) - 159 s(21) <= 0
 c176: tm(21) - pm(21) - 159 s(21) >= -159
 c177: 0.48839945 w(8) - 1.00320869 w(7) - 1.06902984 w(6) + 0.63606237 w(5)
       - 11.4283705 w(4) - 9.0726 w(3) - 11.36451252 w(2) - 9.16804308 w(1)
       - 12.47768413 w(0) + z - pp(22) <= -12.32027712
 c178: - 0.48839945 w(8) + 1.00320869 w(7) + 1.06902984 w(6) - 0.63606237 w(5)
       + 11.4283705 w(4) + 9.0726 w(3) + 11.36451252 w(2) + 9.16804308 w(1)
       + 12.47768413 w(0) - z - pm(22) <= 12.72027712
 c179: tp(22) - pp(22) <= 0
 c180: tp(22) - 143 s(22) <= 0
 c181: tp(22) - pp(22) - 143 s(22) >= -143
 c182: tm(22) - pm(22) <= 0
 c183: tm(22) - 159 s(22) <= 0
 c184: tm(22) - pm(22) - 159 s(22) >= -159
 c185: 1.33483317 w(8) - 1.59306874 w(7) - 0.64665157 w(6) - 0.77898923 w(5)
       + 0.6949339 w(4) - 0.2243139 w(3) + 0.31422314 w(2) - 0.47306083 w(1)
       + 0.65092877 w(0) + z - pp(23) <= -0.44902346
 c186: - 1.33483317 w(8) + 1.59306874 w(7) + 0.64665157 w(6) + 0.77898923 w(5)
       - 0.6949339 w(4) + 0.2243139 w(3) - 0.31422314 w(2) + 0.47306083 w(1)
       - 0.65092877 w(0) - z - pm(23) <= 0.84902346
 c187: tp(23) - pp(23) <= 0
 c188: tp(23) - 143 s(23) <= 0
 c189: tp(23) - pp(23) - 143 s(23) >= -143
 c190: tm(23) - pm(23) <= 0
 c191: tm(23) - 159 s(23) <= 0
 c192: tm(23) - pm(23) - 159 s(23) >= -159
 c193: 0.4936548 w(8) + 0.13229423 w(7) - 0.68553046 w(6) - 0.18514489 w(5)
       + 0.53497348 w(4) - 0.84454254 w(3) - 1.22029639 w(2) - 1.61639033 w(1)
       - 0.89244975 w(0) + z - pp(24) <= -4.27262911
 c194: - 0.4936548 w(8) - 0.13229423 w(7) + 0.68553046 w(6) + 0.18514489 w(5)
       - 0.53497348 w(4) + 0.84454254 w(3) + 1.22029639 w(2) + 1.61639033 w(1)
       + 0.89244975 w(0) - z - pm(24) <= 4.67262911
 c195: tp(24) - pp(24) <= 0
 c196: tp(24) - 143 s(24) <= 0
 c197: tp(24) - pp(24) - 143 s(24) >= -143
 c198: tm(24) - pm(24) <= 0
 c199: tm(24) - 159 s(24) <= 0
 c200: tm(24) - pm(24) - 159 s(24) >= -159
 c201: - 0.21850275 w(8) + 0.48905127 w(7) - 0.06317825 w(6) - 3.33865117 w(5)
       + 1.0817027 w(4) - 1.22458935 w(3) - 0.02690596 w(2) + 1.2369702 w(1)
       - 1.37055481 w(0) + z - pp(25) <= -4.79937916
 c202: 0.21850275 w(8) - 0.48905127 w(7) + 0.06317825 w(6) + 3.33865117 w(5)
       - 1.0817027 w(4) + 1.22458935 w(3) + 0.02690596 w(2) - 1.2369702 w(1)
       + 1.37055481 w(0) - z - pm(25) <= 5.19937916
 c203: tp(25) - pp(25) <= 0
 c204: tp(25) - 143 s(25) <= 0
 c205: tp(25) - pp(25) - 143 s(25) >= -143
 c206: tm(25) - pm(25) <= 0
 c207: tm(25) - 159 s(25) <= 0
 c208: tm(25) - pm(25) - 159 s(25) >= -159
 c209: - 1.00945152 w(8) + 0.86606766 w(7) + 1.95914375 w(6) + 0.31817238 w(5)
       + 0.63164872 w(4) + 0.00434978 w(3) - 1.55800955 w(2) + 0.14642981 w(1)
       + 0.2007339 w(0) + z - pp(26) <= -0.80910875
 c210: 1.00945152 w(8) - 0.86606766 w(7) - 1.95914375 w(6) - 0.31817238 w(5)
       - 0.63164872 w(4) - 0.00434978 w(3) + 1.55800955 w(2) - 0.14642981 w(1)
       - 0.2007339 w(0) - z - pm(26) <= 1.20910875
 c211: tp(26) - pp(26) <= 0
 c212: tp(26) - 143 s(26) <= 0
 c213: tp(26) - pp(26) - 143 s(26) >= -143
 c214: tm(26) - pm(26) <= 0
 c215: tm(26) - 159 s(26) <= 0
 c216: tm(26) - pm(26) - 159 s(26) >= -159
 c217: - 0.20508981 w(8) - 0.71057826 w(7) - 0.04743126 w(6) + 0.28823147 w(5)
       + 8.83476752 w(4) - 9.91190098 w(3) - 8.8040374 w(2) - 9.21003769 w(1)
       - 11.5344444 w(0) + z - pp(27) <= -11.83560596
 c218: 0.20508981 w(8) + 0.71057826 w(7) + 0.04743126 w(6) - 0.28823147 w(5)
       - 8.83476752 w(4) + 9.91190098 w(3) + 8.8040374 w(2) + 9.21003769 w(1)
       + 11.5344444 w(0) - z - pm(27) <= 12.23560596
 c219: tp(27) - pp(27) <= 0
 c220: tp(27) - 143 s(27) <= 0
 c221: tp(27) - pp(27) - 143 s(27) >= -143
 c222: tm(27) - pm(27) <= 0
 c223: tm(27) - 159 s(27) <= 0
 c224: tm(27) - pm(27) - 159 s(27) >= -159
 c225: - 0.95836389 w(8) - 0.9082837 w(7) - 0.7400729 w(6) - 0.1458265 w(5)
       - 0.14293848 w(4) + 0.56391284 w(3) - 1.41266388 w(2) - 0.31474859 w(1)
       - 1.11418021 w(0) + z - pp(28) <= -2.22831513
 c226: 0.95836389 w(8) + 0.9082837 w(7) + 0.7400729 w(6) + 0.1458265 w(5)
       + 0.14293848 w(4) - 0.56391284 w(3) + 1.41266388 w(2) + 0.31474859 w(1)
       + 1.11418021 w(0) - z - pm(28) <= 2.62831513
 c227: tp(28) - pp(28) <= 0
 c228: tp(28) - 143 s(28) <= 0
 c229: tp(28) - pp(28) - 143 s(28) >= -143
 c230: tm(28) - pm(28) <= 0
 c231: tm(28) - 159 s(28) <= 0
 c232: tm(28) - pm(28) - 159 s(28) >= -159
 c233: - 0.48738294 w(8) + 0.22841755 w(7) + 0.55576312 w(6) - 0.25731913 w(5)
       + 1.35316803 w(4) + 1.15089364 w(3) - 2.44480186 w(2) + 0.88565795 w(1)
       - 1.69685055 w(0) + z - pp(29) <= -1.64318836
 c234: 0.48738294 w(8) - 0.22841755 w(7) - 0.55576312 w(6) + 0.25731913 w(5)
       - 1.35316803 w(4) - 1.15089364 w(3) + 2.44480186 w(2) - 0.88565795 w(1)
       + 1.69685055 w(0) - z - pm(29) <= 2.04318836
 c235: tp(29) - pp(29) <= 0
 c236: tp(29) - 143 s(29) <= 0
 c237: tp(29) - pp(29) - 143 s(29) >= -143
 c238: tm(29) - pm(29) <= 0
 c239: tm(29) - 159 s(29) <= 0
 c240: tm(29) - pm(29) - 159 s(29) >= -159
 c241: - 1.73394711 w(8) - 0.31108078 w(7) + 1.126915 w(6) + 1.18806182 w(5)
       - 0.30448301 w(4) - 1.09693792 w(3) + 0.90557443 w(2) + 0.27294282 w(1)
       - 2.68241512 w(0) + z - pp(30) <= -1.42324908
 c242: 1.73394711 w(8) + 0.31108078 w(7) - 1.126915 w(6) - 1.18806182 w(5)
       + 0.30448301 w(4) + 1.09693792 w(3) - 0.90557443 w(2) - 0.27294282 w(1)
       + 2.68241512 w(0) - z - pm(30) <= 1.82324908
 c243: tp(30) - pp(30) <= 0
 c244: tp(30) - 143 s(30) <= 0
 c245: tp(30) - pp(30) - 143 s(30) >= -143
 c246: tm(30) - pm(30) <= 0
 c247: tm(30) - 159 s(30) <= 0
 c248: tm(30) - pm(30) - 159 s(30) >= -159
 c249: - 0.58769104 w(8) - 0.94829997 w(7) - 0.60070878 w(6) + 1.17508 w(5)
       + 0.43349397 w(4) - 0.7921878 w(3) + 1.13817276 w(2) - 0.84043391 w(1)
       - 0.74244808 w(0) + z - pp(31) <= 1.19915691
 c250: 0.58769104 w(8) + 0.94829997 w(7) + 0.60070878 w(6) - 1.17508 w(5)
       - 0.43349397 w(4) + 0.7921878 w(3) - 1.13817276 w(2) + 0.84043391 w(1)
       + 0.74244808 w(0) - z - pm(31) <= -0.79915691
 c251: tp(31) - pp(31) <= 0
 c252: tp(31) - 143 s(31) <= 0
 c253: tp(31) - pp(31) - 143 s(31) >= -143
 c254: tm(31) - pm(31) <= 0
 c255: tm(31) - 159 s(31) <= 0
 c256: tm(31) - pm(31) - 159 s(31) >= -159
 c257: 0.70511514 w(8) - 0.33837817 w(7) + 0.53334847 w(6) - 0.32667771 w(5)
       + 1.30256204 w(4) + 0.62577361 w(3) + 2.23187006 w(2) - 0.92027682 w(1)
       + 0.21022472 w(0) + z - pp(32) <= 3.90535524
 c258: - 0.70511514 w(8) + 0.33837817 w(7) - 0.53334847 w(6) + 0.32667771 w(5)
       - 1.30256204 w(4) - 0.62577361 w(3) - 2.23187006 w(2) + 0.92027682 w(1)
       - 0.21022472 w(0) - z - pm(32) <= -3.50535524
 c259: tp(32) - pp(32) <= 0
 c260: tp(32) - 143 s(32) <= 0
 c261: tp(32) - pp(32) - 143 s(32) >= -143
 c262: tm(32) - pm(32) <= 0
 c263: tm(32) - 159 s(32) <= 0
 c264: tm(32) - pm(32) - 159 s(32) >= -159
 c265: - 0.22393346 w(8) + 1.69053715 w(7) + 0.84694126 w(6) + 0.2083193 w(5)
       - 0.61487191 w(4) - 0.74034111 w(3) + 0.51756824 w(2) + 0.12814409 w(1)
       - 0.31376368 w(0) + z - pp(33) <= -1.41511023
 c266: 0.22393346 w(8) - 1.69053715 w(7) - 0.84694126 w(6) - 0.2083193 w(5)
       + 0.61487191 w(4) + 0.74034111 w(3) - 0.51756824 w(2) - 0.12814409 w(1)
       + 0.31376368 w(0) - z - pm(33) <= 1.81511023
 c267: tp(33) - pp(33) <= 0
 c268: tp(33) - 143 s(33) <= 0
 c269: tp(33) - pp(33) - 143 s(33) >= -143
 c270: tm(33) - pm(33) <= 0
 c271: tm(33) - 159 s(33) <= 0
 c272: tm(33) - pm(33) - 159 s(33) >= -159
 c273: - 1.82050845 w(8) + 0.84081261 w(7) - 0.99493029 w(6) - 0.45533253 w(5)
       + 0.39369681 w(4) - 1.20486726 w(3) - 0.10121258 w(2) + 0.80805284 w(1)
       + 0.38232097 w(0) + z - pp(34) <= 0.3784885
 c274: 1.82050845 w(8) - 0.84081261 w(7) + 0.99493029 w(6) + 0.45533253 w(5)
       - 0.39369681 w(4) + 1.20486726 w(3) + 0.10121258 w(2) - 0.80805284 w(1)
       - 0.38232097 w(0) - z - pm(34) <= 0.0215115
 c275: tp(34) - pp(34) <= 0
 c276: tp(34) - 143 s(34) <= 0
 c277: tp(34) - pp(34) - 143 s(34) >= -143
 c278: tm(34) - pm(34) <= 0
 c279: tm(34) - 159 s(34) <= 0
 c280: tm(34) - pm(34) - 159 s(34) >= -159
 c281: - 0.12789332 w(8) - 0.08121982 w(7) - 0.6894448 w(6) - 0.12856645 w(5)
       + 0.95319398 w(4) + 1.33423512 w(3) + 1.23284356 w(2) - 0.85887562 w(1)
       + 0.44160084 w(0) + z - pp(35) <= 2.97753966
 c282: 0.12789332 w(8) + 0.08121982 w(7) + 0.6894448 w(6) + 0.12856645 w(5)
       - 0.95319398 w(4) - 1.33423512 w(3) - 1.23284356 w(2) + 0.85887562 w(1)
       - 0.44160084 w(0) - z - pm(35) <= -2.57753966
 c283: tp(35) - pp(35) <= 0
 c284: tp(35) - 143 s(35) <= 0
 c285: tp(35) - pp(35) - 143 s(35) >= -143
 c286: tm(35) - pm(35) <= 0
 c287: tm(35) - 159 s(35) <= 0
 c288: tm(35) - pm(35) - 159 s(35) >= -159
 c289: 2.43393771 w(8) + 0.01622 w(7) - 0.13279952 w(6) + 1.15095504 w(5)
       - 1.35752471 w(4) - 2.2888499 w(3) + 0.65146858 w(2) - 0.25522775 w(1)
       - 0.29807819 w(0) + z - pp(36) <= -2.78658881
 c290: - 2.43393771 w(8) - 0.01622 w(7) + 0.13279952 w(6) - 1.15095504 w(5)
       + 1.35752471 w(4) + 2.2888499 w(3) - 0.65146858 w(2) + 0.25522775 w(1)
       + 0.29807819 w(0) - z - pm(36) <= 3.18658881
 c291: tp(36) - pp(36) <= 0
 c292: tp(36) - 143 s(36) <= 0
 c293: tp(36) - pp(36) - 143 s(36) >= -143
 c294: tm(36) - pm(36) <= 0
 c295: tm(36) - 159 s(36) <= 0
 c296: tm(36) - pm(36) - 159 s(36) >= -159
 c297: 1.37849677 w(8) - 0.92117845 w(7) - 0.42935815 w(6) + 1.02393711 w(5)
       - 0.74064327 w(4) - 1.90935653 w(3) - 1.21244425 w(2) + 1.04502692 w(1)
       - 0.0302684 w(0) + z - pp(37) <= -0.30472436
 c298: - 1.37849677 w(8) + 0.92117845 w(7) + 0.42935815 w(6) - 1.02393711 w(5)
       + 0.74064327 w(4) + 1.90935653 w(3) + 1.21244425 w(2) - 1.04502692 w(1)
       + 0.0302684 w(0) - z - pm(37) <= 0.70472436
 c299: tp(37) - pp(37) <= 0
 c300: tp(37) - 143 s(37) <= 0
 c301: tp(37) - pp(37) - 143 s(37) >= -143
 c302: tm(37) - pm(37) <= 0
 c303: tm(37) - 159 s(37) <= 0
 c304: tm(37) - pm(37) - 159 s(37) >= -159
 c305: - 1.28657571 w(8) - 0.86217879 w(7) - 2.09304937 w(6) + 0.35575928 w(5)
       - 0.1002152 w(4) + 1.13288323 w(3) - 1.56483713 w(2) - 0.42158899 w(1)
       - 2.71153396 w(0) + z - pp(38) <= -2.61465375
 c306: 1.28657571 w(8) + 0.86217879 w(7) + 2.09304937 w(6) - 0.35575928 w(5)
       + 0.1002152 w(4) - 1.13288323 w(3) + 1.56483713 w(2) + 0.42158899 w(1)
       + 2.71153396 w(0) - z - pm(38) <= 3.01465375
 c307: tp(38) - pp(38) <= 0
 c308: tp(38) - 143 s(38) <= 0
 c309: tp(38) - pp(38) - 143 s(38) >= -143
 c310: tm(38) - pm(38) <= 0
 c311: tm(38) - 159 s(38) <= 0
 c312: tm(38) - pm(38) - 159 s(38) >= -159
 c313: - 1.67035828 w(8) + 1.00156309 w(7) - 1.15201503 w(6) + 1.40135061 w(5)
       - 1.23767543 w(4) + 1.55080013 w(3) - 0.33964832 w(2) + 1.81712548 w(1)
       + 1.69745684 w(0) + z - pp(39) <= 4.09482156
 c314: 1.67035828 w(8) - 1.00156309 w(7) + 1.15201503 w(6) - 1.40135061 w(5)
       + 1.23767543 w(4) - 1.55080013 w(3) + 0.33964832 w(2) - 1.81712548 w(1)
       - 1.69745684 w(0) - z - pm(39) <= -3.69482156
 c315: tp(39) - pp(39) <= 0
 c316: tp(39) - 143 s(39) <= 0
 c317: tp(39) - pp(39) - 143 s(39) >= -143
 c318: tm(39) - pm(39) <= 0
 c319: tm(39) - 159 s(39) <= 0
 c320: tm(39) - pm(39) - 159 s(39) >= -159
 c321: 0.48017461 w(8) + 0.01021165 w(7) - 0.75968662 w(6) + 0.26775686 w(5)
       - 0.56122738 w(4) + 1.13681742 w(3) + 1.02745512 w(2) - 0.33768468 w(1)
       + 1.20212853 w(0) + z - pp(40) <= 2.87963822
 c322: - 0.48017461 w(8) - 0.01021165 w(7) + 0.75968662 w(6) - 0.26775686 w(5)
       + 0.56122738 w(4) - 1.13681742 w(3) - 1.02745512 w(2) + 0.33768468 w(1)
       - 1.20212853 w(0) - z - pm(40) <= -2.47963822
 c323: tp(40) - pp(40) <= 0
 c324: tp(40) - 143 s(40) <= 0
 c325: tp(40) - pp(40) - 143 s(40) >= -143
 c326: tm(40) - pm(40) <= 0
 c327: tm(40) - 159 s(40) <= 0
 c328: tm(40) - pm(40) - 159 s(40) >= -159
 c329: - 1.89731079 w(8) - 0.47159827 w(7) - 2.41635499 w(6) - 0.60241045 w(5)
       + 0.10804758 w(4) - 0.17480373 w(3) + 1.26648107 w(2) - 0.5220568 w(1)
       - 0.5539506 w(0) + z - pp(41) <= -0.83273591
 c330: 1.89731079 w(8) + 0.47159827 w(7) + 2.41635499 w(6) + 0.60241045 w(5)
       - 0.10804758 w(4) + 0.17480373 w(3) - 1.26648107 w(2) + 0.5220568 w(1)
       + 0.5539506 w(0) - z - pm(41) <= 1.23273591
 c331: tp(41) - pp(41) <= 0
 c332: tp(41) - 143 s(41) <= 0
 c333: tp(41) - pp(41) - 143 s(41) >= -143
 c334: tm(41) - pm(41) <= 0
 c335: tm(41) - 159 s(41) <= 0
 c336: tm(41) - pm(41) - 159 s(41) >= -159
 c337: 0.56310335 w(8) + 0.24698925 w(7) + 0.2135627 w(6) + 0.62890896 w(5)
       - 0.87882661 w(4) - 1.2622319 w(3) + 1.10310532 w(2) - 0.77542794 w(1)
       - 1.35657454 w(0) + z - pp(42) <= -0.78524058
 c338: - 0.56310335 w(8) - 0.24698925 w(7) - 0.2135627 w(6) - 0.62890896 w(5)
       + 0.87882661 w(4) + 1.2622319 w(3) - 1.10310532 w(2) + 0.77542794 w(1)
       + 1.35657454 w(0) - z - pm(42) <= 1.18524058
 c339: tp(42) - pp(42) <= 0
 c340: tp(42) - 143 s(42) <= 0
 c341: tp(42) - pp(42) - 143 s(42) >= -143
 c342: tm(42) - pm(42) <= 0
 c343: tm(42) - 159 s(42) <= 0
 c344: tm(42) - pm(42) - 159 s(42) >= -159
 c345: 0.57361856 w(8) - 0.39135106 w(7) + 1.43351756 w(6) + 1.50772196 w(5)
       + 0.5104125 w(4) - 1.43845321 w(3) + 0.74656615 w(2) + 0.65350021 w(1)
       - 2.35133771 w(0) + z - pp(43) <= -1.21701119
 c346: - 0.57361856 w(8) + 0.39135106 w(7) - 1.43351756 w(6) - 1.50772196 w(5)
       - 0.5104125 w(4) + 1.43845321 w(3) - 0.74656615 w(2) - 0.65350021 w(1)
       + 2.35133771 w(0) - z - pm(43) <= 1.61701119
 c347: tp(43) - pp(43) <= 0
 c348: tp(43) - 143 s(43) <= 0
 c349: tp(43) - pp(43) - 143 s(43) >= -143
 c350: tm(43) - pm(43) <= 0
 c351: tm(43) - 159 s(43) <= 0
 c352: tm(43) - pm(43) - 159 s(43) >= -159
 c353: - 1.21176466 w(8) + 1.42241138 w(7) - 0.74335491 w(6) + 0.15931649 w(5)
       + 1.04430797 w(4) - 0.50301244 w(3) - 1.13367386 w(2) - 0.0235707 w(1)
       + 1.0230476 w(0) + z - pp(44) <= 1.89165414
 c354: 1.21176466 w(8) - 1.42241138 w(7) + 0.74335491 w(6) - 0.15931649 w(5)
       - 1.04430797 w(4) + 0.50301244 w(3) + 1.13367386 w(2) + 0.0235707 w(1)
       - 1.0230476 w(0) - z - pm(44) <= -1.49165414
 c355: tp(44) - pp(44) <= 0
 c356: tp(44) - 143 s(44) <= 0
 c357: tp(44) - pp(44) - 143 s(44) >= -143
 c358: tm(44) - pm(44) <= 0
 c359: tm(44) - 159 s(44) <= 0
 c360: tm(44) - pm(44) - 159 s(44) >= -159
 c361: 0.32883424 w(8) + 0.48249121 w(7) + 1.75123083 w(6) + 0.72948691 w(5)
       + 0.70972371 w(4) + 0.35041476 w(3) - 0.52515386 w(2) + 0.77166822 w(1)
       - 0.44168191 w(0) + z - pp(45) <= 1.33174785
 c362: - 0.32883424 w(8) - 0.48249121 w(7) - 1.75123083 w(6) - 0.72948691 w(5)
       - 0.70972371 w(4) - 0.35041476 w(3) + 0.52515386 w(2) - 0.77166822 w(1)
       + 0.44168191 w(0) - z - pm(45) <= -0.93174785
 c363: tp(45) - pp(45) <= 0
 c364: tp(45) - 143 s(45) <= 0
 c365: tp(45) - pp(45) - 143 s(45) >= -143
 c366: tm(45) - pm(45) <= 0
 c367: tm(45) - 159 s(45) <= 0
 c368: tm(45) - pm(45) - 159 s(45) >= -159
 c369: - 0.57979266 w(8) - 0.47350483 w(7) - 0.86104222 w(6) - 1.75076201 w(5)
       - 0.62504178 w(4) + 0.62544713 w(3) - 0.28609233 w(2) + 0.93473638 w(1)
       - 0.5619202 w(0) + z - pp(46) <= -2.43181827
 c370: 0.57979266 w(8) + 0.47350483 w(7) + 0.86104222 w(6) + 1.75076201 w(5)
       + 0.62504178 w(4) - 0.62544713 w(3) + 0.28609233 w(2) - 0.93473638 w(1)
       + 0.5619202 w(0) - z - pm(46) <= 2.83181827
 c371: tp(46) - pp(46) <= 0
 c372: tp(46) - 143 s(46) <= 0
 c373: tp(46) - pp(46) - 143 s(46) >= -143
 c374: tm(46) - pm(46) <= 0
 c375: tm(46) - 159 s(46) <= 0
 c376: tm(46) - pm(46) - 159 s(46) >= -159
 c377: - 1.1629133 w(8) - 0.34191357 w(7) - 1.06030132 w(6) + 0.07669834 w(5)
       - 0.33300373 w(4) - 0.10159117 w(3) + 1.30668682 w(2) + 1.08672902 w(1)
       + 1.67250568 w(0) + z - pp(47) <= 4.0379039
 c378: 1.1629133 w(8) + 0.34191357 w(7) + 1.06030132 w(6) - 0.07669834 w(5)
       + 0.33300373 w(4) + 0.10159117 w(3) - 1.30668682 w(2) - 1.08672902 w(1)
       - 1.67250568 w(0) - z - pm(47) <= -3.6379039
 c379: tp(47) - pp(47) <= 0
 c380: tp(47) - 143 s(47) <= 0
 c381: tp(47) - pp(47) - 143 s(47) >= -143
 c382: tm(47) - pm(47) <= 0
 c383: tm(47) - 159 s(47) <= 0
 c384: tm(47) - pm(47) - 159 s(47) >= -159
 c385: 0.50106878 w(8) + 1.71830397 w(7) - 0.21323324 w(6) + 1.77633846 w(5)
       - 8.8883932 w(4) - 9.29568388 w(3) + 10.77588895 w(2) - 8.59699751 w(1)
       - 8.9070997 w(0) + z - pp(48) <= -5.62330048
 c386: - 0.50106878 w(8) - 1.71830397 w(7) + 0.21323324 w(6) - 1.77633846 w(5)
       + 8.8883932 w(4) + 9.29568388 w(3) - 10.77588895 w(2) + 8.59699751 w(1)
       + 8.9070997 w(0) - z - pm(48) <= 6.02330048
 c387: tp(48) - pp(48) <= 0
 c388: tp(48) - 143 s(48) <= 0
 c389: tp(48) - pp(48) - 143 s(48) >= -143
 c390: tm(48) - pm(48) <= 0
 c391: tm(48) - 159 s(48) <= 0
 c392: tm(48) - pm(48) - 159 s(48) >= -159
 c393: - 0.46078208 w(8) + 1.6250244 w(7) + 0.21431056 w(6) - 0.33791501 w(5)
       + 0.85164144 w(4) + 0.27179905 w(3) + 2.8721266 w(2) + 0.67372528 w(1)
       + 1.53658795 w(0) + z - pp(49) <= 6.27993292
 c394: 0.46078208 w(8) - 1.6250244 w(7) - 0.21431056 w(6) + 0.33791501 w(5)
       - 0.85164144 w(4) - 0.27179905 w(3) - 2.8721266 w(2) - 0.67372528 w(1)
       - 1.53658795 w(0) - z - pm(49) <= -5.87993292
 c395: tp(49) - pp(49) <= 0
 c396: tp(49) - 143 s(49) <= 0
 c397: tp(49) - pp(49) - 143 s(49) >= -143
 c398: tm(49) - pm(49) <= 0
 c399: tm(49) - 159 s(49) <= 0
 c400: tm(49) - pm(49) - 159 s(49) >= -159
 c401: w(0) - 30 f(0) <= 0
 c402: w(0) + 10 f(0) >= 0
 c403: w(1) - 30 f(1) <= 0
 c404: w(1) + 10 f(1) >= 0
 c405: w(2) - 30 f(2) <= 0
 c406: w(2) + 10 f(2) >= 0
 c407: w(3) - 30 f(3) <= 0
 c408: w(3) + 10 f(3) >= 0
 c409: w(4) - 20 f(4) <= 0
 c410: w(4) + 20 f(4) >= 0
 c411: w(5) - 20 f(5) <= 0
 c412: w(5) + 20 f(5) >= 0
 c413: w(6) - 20 f(6) <= 0
 c414: w(6) + 20 f(6) >= 0
 c415: w(7) - 20 f(7) <= 0
 c416: w(7) + 20 f(7) >= 0
 c417: w(8) - 20 f(8) <= 0
 c418: w(8) + 20 f(8) >= 0
 c419: f(0) + f(1) + f(2) + f(3) + f(4) + f(5) + f(6) + f(7) + f(8) <= 4
 c420: s(0) + s(1) + s(2) + s(3) + s(4) + s(5) + s(6) + s(7) + s(8) + s(9)
       + s(10) + s(11) + s(12) + s(13) + s(14) + s(15) + s(16) + s(17) + s(18)
       + s(19) + s(20) + s(21) + s(22) + s(23) + s(24) + s(25) + s(26) + s(27)
       + s(28) + s(29) + s(30) + s(31) + s(32) + s(33) + s(34) + s(35) + s(36)
       + s(37) + s(38) + s(39) + s(40) + s(41) + s(42) + s(43) + s(44) + s(45)
       + s(46) + s(47) + s(48) + s(49) >= 45
Bounds
      w(8) Free
      w(7) Free
      w(6) Free
      w(5) Free
      w(4) Free
      w(3) Free
      w(2) Free
      w(1) Free
      w(0) Free
      z Free
 0 <= s(0) <= 1
 0 <= s(1) <= 1
 0 <= s(2) <= 1
 0 <= s(3) <= 1
 0 <= s(4) <= 1
 0 <= s(5) <= 1
 0 <= s(6) <= 1
 0 <= s(7) <= 1
 0 <= s(8) <= 1
 0 <= s(9) <= 1
 0 <= s(10) <= 1
 0 <= s(11) <= 1
 0 <= s(12) <= 1
 0 <= s(13) <= 1
 0 <= s(14) <= 1
 0 <= s(15) <= 1
 0 <= s(16) <= 1
 0 <= s(17) <= 1
 0 <= s(18) <= 1
 0 <= s(19) <= 1
 0 <= s(20) <= 1
 0 <= s(21) <= 1
 0 <= s(22) <= 1
 0 <= s(23) <= 1
 0 <= s(24) <= 1
 0 <= s(25) <= 1
 0 <= s(26) <= 1
 0 <= s(27) <= 1
 0 <= s(28) <= 1
 0 <= s(29) <= 1
 0 <= s(30) <= 1
 0 <= s(31) <= 1
 0 <= s(32) <= 1
 0 <= s(33) <= 1
 0 <= s(34) <= 1
 0 <= s(35) <= 1
 0 <= s(36) <= 1
 0 <= s(37) <= 1
 0 <= s(38) <= 1
 0 <= s(39) <= 1
 0 <= s(40) <= 1
 0 <= s(41) <= 1
 0 <= s(42) <= 1
 0 <= s(43) <= 1
 0 <= s(44) <= 1
 0 <= s(45) <= 1
 0 <= s(46) <= 1
 0 <= s(47) <= 1
 0 <= s(48) <= 1
 0 <= s(49) <= 1
 0 <= f(0) <= 1
 0 <= f(1) <= 1
 0 <= f(2) <= 1
 0 <= f(3) <= 1
 0 <= f(4) <= 1
 0 <= f(5) <= 1
 0 <= f(6) <= 1
 0 <= f(7) <= 1
 0 <= f(8) <= 1
Binaries
 s(0)  s(1)  s(2)  s(3)  s(4)  s(5)  s(6)  s(7)  s(8)  s(9)  s(10)  s(11) 
 s(12)  s(13)  s(14)  s(15)  s(16)  s(17)  s(18)  s(19)  s(20)  s(21)  s(22) 
 s(23)  s(24)  s(25)  s(26)  s(27)  s(28)  s(29)  s(30)  s(31)  s(32)  s(33) 
 s(34)  s(35)  s(36)  s(37)  s(38)  s(39)  s(40)  s(41)  s(42)  s(43)  s(44) 
 s(45)  s(46)  s(47)  s(48)  s(49)  f(0)  f(1)  f(2)  f(3)  f(4)  f(5)  f(6) 
 f(7)  f(8) 
End
